LAMMPS (29 Sep 2021 - Update 2)
OMP_NUM_THREADS environment is not set. Defaulting to 1 thread. (src/comm.cpp:98)
  using 1 OpenMP thread(s) per MPI task
# ethanol at a nacl surface
# variables
variable pre equal 1 # desired pressure (Atm)
variable tem equal 300 # desired temperature (K)
# main parameters
units real # style of units (A, fs, Kcal/mol)
atom_style full # molecular + charge
bond_style harmonic
angle_style harmonic
dihedral_style harmonic
boundary p p p # periodic boundary conditions
pair_style lj/cut/coul/long 10 # cut-off 1 nm
kspace_style pppm 1.0e-4
pair_modify mix arithmetic tail yes # eij = sqrt(ei*ej), dij = 0.5*(di+dj)

# import positions and parameters
read_data data.lammps
Reading data file ...
  orthogonal box = (-14.200000 -14.200000 -25.680000) to (14.200000 14.200000 25.680000)
  1 by 2 by 2 MPI processor grid
  reading atoms ...
  490 atoms
  scanning bonds ...
  3 = max bonds/atom
  scanning angles ...
  6 = max angles/atom
  scanning dihedrals ...
  9 = max dihedrals/atom
  reading bonds ...
  80 bonds
  reading angles ...
  130 angles
  reading dihedrals ...
  120 dihedrals
Finding 1-2 1-3 1-4 neighbors ...
  special bond factors lj:    0        0        0       
  special bond factors coul:  0        0        0       
     4 = max # of 1-2 neighbors
     4 = max # of 1-3 neighbors
     7 = max # of 1-4 neighbors
     8 = max # of special neighbors
  special bonds CPU = 0.000 seconds
  read_data CPU = 0.010 seconds
include PARM.lammps
# mass parameters
mass 1 22.99000
mass 2 35.45000
mass 3 12.011
mass 4 1.008
mass 5 1.008
mass 6 12.011
mass 7 15.9994

# pair coeffs
pair_coeff 1 1 0.0552 2.31
pair_coeff 2 2 0.1004 4.3
pair_coeff 3 3 0.0663 3.5812
pair_coeff 4 4 0.0281 2.3734
pair_coeff 5 5 0.0000 0.0000
pair_coeff 6 6 0.2450 2.8114
pair_coeff 7 7 0.1195 3.1000

# bond coeffs
bond_coeff 1 349.274 1.0900
bond_coeff 2 399.792 1.4300
bond_coeff 3 299.844 1.5200
bond_coeff 4 349.928 1.1000
bond_coeff 5 442.161 0.9720

# angle coeffs
angle_coeff 1 47.694 109.500
angle_coeff 2 55.127 109.500
angle_coeff 3 55.114 111.000
angle_coeff 4 52.477 107.570
angle_coeff 5 47.502 108.530
angle_coeff 6 54.993 110.300

# dihedral coeffs
dihedral_coeff 1 0.30115 1 3
dihedral_coeff 2 1.415 1 3
dihedral_coeff 3 0.0 1 1
dihedral_coeff  3 0.0 1 1
# groups # descriptions
group nacl type 1 2 # nacl wall
400 atoms in group nacl
group eth type 3 4 5 6 7 # ethanol molecules
90 atoms in group eth
# dynamics
timestep 1 # (fs)
fix mymme nacl momentum 1 linear 1 1 1
velocity all create ${tem} 4928459 rot yes mom yes dist gaussian
velocity all create 300 4928459 rot yes mom yes dist gaussian
fix mynpt all npt temp ${tem} ${tem} 100 x ${pre} ${pre} 1000 y ${pre} ${pre} 1000
fix mynpt all npt temp 300 ${tem} 100 x ${pre} ${pre} 1000 y ${pre} ${pre} 1000
fix mynpt all npt temp 300 300 100 x ${pre} ${pre} 1000 y ${pre} ${pre} 1000
fix mynpt all npt temp 300 300 100 x 1 ${pre} 1000 y ${pre} ${pre} 1000
fix mynpt all npt temp 300 300 100 x 1 1 1000 y ${pre} ${pre} 1000
fix mynpt all npt temp 300 300 100 x 1 1 1000 y 1 ${pre} 1000
fix mynpt all npt temp 300 300 100 x 1 1 1000 y 1 1 1000
# output
thermo 1000
dump dp1 all atom 1000 dump.lammpstrj # print every 1 ps
# run
run 100000 # 100 ps
PPPM initialization ...
  using 12-bit tables for long-range coulomb (src/kspace.cpp:340)
  G vector (1/distance) = 0.26209145
  grid = 15 15 24
  stencil order = 5
  estimated absolute RMS force accuracy = 0.028007652
  estimated relative force accuracy = 8.4344212e-05
  using double precision FFTW3
  3d grid and FFT values/proc = 5236 1440
Neighbor list info ...
  update every 1 steps, delay 10 steps, check yes
  max neighbors/atom: 2000, page size: 100000
  master list distance cutoff = 12
  ghost atom cutoff = 12
  binsize = 6, bins = 5 5 9
  1 neighbor lists, perpetual/occasional/extra = 1 0 0
  (1) pair lj/cut/coul/long, perpetual
      attributes: half, newton on
      pair build: half/bin/newton
      stencil: half/bin/3d
      bin: standard
Per MPI rank memory allocation (min/avg/max) = 12.94 | 13.05 | 13.39 Mbytes
Step Temp E_pair E_mol TotEng Press Volume 
       0          300   -38657.495    1.4661238   -38218.744    -7435.384    41424.922 
    1000    313.59091   -38617.376    47.903542   -38112.377    87.389979    39081.087 
    2000    314.99323   -38614.582    49.420249   -38106.022   -315.81962    38904.988 
    3000    289.42376   -38621.045    51.125061   -38148.051    16.256595    38769.686 
    4000    298.40046   -38587.449    62.878827   -38089.616    170.70652    38871.887 
    5000    300.71251   -38616.376    57.521091   -38120.531   -115.61227    38935.527 
    6000    301.04176   -38588.157    62.376094   -38086.977    26.316039    38974.983 
    7000    303.12124   -38607.715    50.985815   -38114.894    13.604687     39025.89 
    8000    288.71445   -38629.582    58.145346   -38150.602    47.306716    38818.778 
    9000    297.98436   -38593.816    61.052124   -38098.417    326.01722    38953.168 
   10000    308.47917   -38618.597    52.265352   -38116.688    -340.3644    39071.882 
   11000     298.3883   -38639.148    59.694814   -38144.518    -634.4172    39056.741 
   12000     299.6037   -38595.481    56.607745   -38102.167   -421.81832    38970.495 
   13000    303.08134   -38607.907    56.836445   -38109.295   -67.757838    38900.603 
   14000    293.94575   -38629.244    53.929561   -38146.855    726.39458    38570.514 
   15000    284.45132   -38587.027    55.690371   -38116.716    233.69452    38931.103 
   16000     278.6415   -38639.412    49.441303   -38183.818   -324.98836    38995.627 
   17000    301.87752   -38625.745    51.761342   -38133.962   -390.00999    39008.106 
   18000    286.45534   -38646.408    51.401117   -38177.465   -104.62262    38785.181 
   19000    302.13333   -38642.062    55.773794   -38145.894    -203.2742    39027.646 
   20000    295.25083   -38672.211     54.86488   -38186.983     455.7753     38843.21 
   21000    280.56667   -38636.598    58.241254   -38169.398    39.874883    38910.734 
   22000    295.73888   -38632.856    65.316112   -38136.467    -386.3857      38873.7 
   23000    294.58905   -38628.816    58.056846   -38141.362   -534.95194    39083.534 
   24000    294.65737   -38596.168     68.85702   -38097.814   -109.24193    39205.957 
   25000    302.56058   -38639.924    46.354804   -38152.552    201.44365    38720.407 
   26000    305.08091    -38676.35    53.604372   -38178.055   -353.97858    38756.927 
   27000    293.28342   -38655.525    55.909053   -38172.121   -449.68278    39004.666 
   28000    292.28608   -38622.948    58.834474   -38138.072   -149.04257    38988.061 
   29000    319.21059   -38675.713    52.365144   -38158.062   -118.76468    38895.955 
   30000    311.97032   -38653.372    59.588128   -38139.051    -4.885481    38935.058 
   31000    305.43595   -38647.087    48.406974   -38153.471    158.04496    38832.485 
   32000    286.68913   -38649.782    52.667731   -38179.232    7.9964045    38894.082 
   33000    289.65338   -38650.523    55.409314    -38172.91    -677.7619    39086.037 
   34000    283.41121   -38660.835    62.234185   -38185.496    81.709138     39001.63 
   35000    310.80233   -38657.292    54.833065   -38149.428    654.94469    38855.947 
   36000    317.89224   -38654.756    55.545692   -38135.845    713.18402    38812.236 
   37000    300.67699   -38659.251    42.420572   -38178.559   -64.547134    39049.106 
   38000    295.25851    -38631.63     53.45885   -38147.798   -1124.4309    39299.115 
   39000    296.16491   -38669.006    52.982267   -38184.329   -12.025661    38923.632 
   40000    322.14286   -38670.138    50.541009   -38150.037    547.85061    38863.616 
   41000    291.22765   -38676.775    62.089555   -38190.188    399.46297    38772.679 
   42000    305.57306   -38654.255    64.748285   -38144.099    516.60678    38665.179 
   43000    318.52302   -38688.931    61.431927   -38163.215   -324.18629    38960.782 
   44000    305.39038   -38645.762    54.970326    -38145.65   -160.81275    38979.005 
   45000    314.34084   -38623.909    59.100781    -38106.62   -446.20004    39216.482 
   46000    282.66959   -38647.512    52.503175   -38182.985   -214.53482    39069.204 
   47000    290.00736   -38650.778    66.631175   -38161.428   -515.29119    39025.264 
   48000    291.68358   -38653.701    61.228026    -38167.31   -85.819902    38938.293 
   49000     324.2343   -38670.812     55.41244    -38142.79    17.848588    38927.083 
   50000    295.54651   -38639.031    60.032825   -38148.204    467.38279    38749.032 
   51000    295.71962   -38650.668    54.271923   -38165.351    48.612857    38932.523 
   52000    286.62162   -38643.743    55.815602   -38170.143   -355.23827    39051.463 
   53000    310.57751   -38643.085    59.087029   -38131.295   -109.49785    39006.478 
   54000    298.80317    -38663.04    56.852647   -38170.647   -97.658468    38900.171 
   55000    325.56516   -38641.585    58.392303   -38108.643    140.69672    38818.356 
   56000    309.39853   -38670.873    57.754009   -38162.135    97.801412    39120.047 
   57000    296.28732   -38644.546    60.663923   -38152.009   -196.44632    39041.636 
   58000    286.84231   -38671.083    58.841066   -38194.136    519.83199    38949.638 
   59000    302.96982   -38652.157    61.953341    -38148.59    294.77515    38863.129 
   60000    282.63318   -38657.046      50.4574   -38194.618    395.55536    38808.066 
   61000    294.25511   -38661.814    59.179998   -38173.723   -450.13786    39068.504 
   62000    325.94939    -38623.37     61.56762   -38086.693   -805.17089    39237.912 
   63000    309.97073   -38677.819    52.345987   -38173.655   -231.89223    38963.872 
   64000     313.1007   -38631.793    54.937278   -38120.475    33.695739    38689.032 
   65000    301.11531   -38680.376    54.399356   -38187.066   -290.84681    38999.172 
   66000    296.17897   -38619.048    58.282488    -38129.05   -339.42305    38991.034 
   67000    302.97004   -38651.455    63.343156   -38146.498    210.28642    38864.239 
   68000    328.43851   -38643.488     60.76453   -38103.987     515.0832    38778.164 
   69000    295.35642   -38680.333    63.683867   -38186.132    137.24733    38817.227 
   70000    305.27484   -38651.833    62.932045   -38143.928   -148.20184    39027.971 
   71000    292.41059   -38652.683     73.38912   -38153.072   -505.03549    38982.239 
   72000    300.74864   -38691.224    61.825618   -38191.022   -62.852421    38811.519 
   73000    325.63129   -38657.542    73.578803   -38109.318   -16.164865    38980.407 
   74000    318.51282   -38678.167    67.013652   -38146.884   -112.42088    39082.207 
   75000    306.81024   -38681.179    55.818305   -38178.149   -158.81739    39040.198 
   76000    301.86411   -38634.162    57.156499   -38137.004    129.35473    39040.082 
   77000    315.62778   -38683.739    45.065819   -38178.609    355.19426    38897.465 
   78000    304.86686   -38671.271    60.186662   -38166.705   -465.22606    38995.395 
   79000    302.96797   -38687.141    53.400758   -38192.129    383.52843    38818.436 
   80000    271.63358   -38677.802     58.70616   -38223.159    432.82097    38659.245 
   81000    287.55044   -38679.299    62.286961   -38197.874    168.74515    38863.489 
   82000    304.86291    -38640.78    77.588005   -38118.819   -707.82884    39184.141 
   83000    321.78449   -38691.579    57.715403   -38164.826   -179.45604     39012.37 
   84000    311.47262   -38673.804    56.893666   -38162.903    198.87092    38730.065 
   85000    303.60823   -38676.194    61.591513   -38172.058    428.22618    38781.002 
   86000    287.32763   -38660.463    66.484415   -38175.165   -217.79771    39016.848 
   87000    285.67777   -38686.148    65.754409   -38203.985   -318.94309    38951.524 
   88000    309.90037   -38676.366    67.759004   -38156.891   -120.91527    38967.074 
   89000    294.61006   -38677.047    60.957473   -38186.661    310.66738    38843.831 
   90000    316.95595   -38676.944      65.1608   -38149.783    201.66697    38892.771 
   91000    298.83726   -38663.187    59.553935   -38168.043   -46.697549    38922.331 
   92000    305.22075   -38664.151     65.46736   -38153.789   -536.86232    39223.914 
   93000    307.12875   -38660.414    61.133744   -38151.604   -105.55603    39098.369 
   94000    281.46675    -38681.36    69.803361   -38201.286    315.49169      38867.9 
   95000    306.33078   -38680.708    59.446808   -38174.749   -242.43667    38926.039 
   96000    290.00439   -38654.363    67.513878   -38164.134   -567.28722     39201.43 
   97000      294.507   -38661.385    69.898428   -38162.209   -669.15947    39140.811 
   98000    290.15224   -38663.107    64.479204   -38175.697   -14.294357    38827.775 
   99000    314.62937   -38687.792    58.310512   -38170.873    87.266046    38945.695 
  100000    299.58748    -38637.35    61.997879   -38138.668    142.29809    38916.189 
Loop time of 95.5344 on 4 procs for 100000 steps with 490 atoms

Performance: 90.439 ns/day, 0.265 hours/ns, 1046.744 timesteps/s
91.9% CPU use with 4 MPI tasks x 1 OpenMP threads

MPI task timing breakdown:
Section |  min time  |  avg time  |  max time  |%varavg| %total
---------------------------------------------------------------
Pair    | 17.117     | 23.165     | 27.798     |  92.9 | 24.25
Bond    | 0.066623   | 0.54636    | 1.3365     |  71.1 |  0.57
Kspace  | 37.735     | 41.917     | 47.78      |  63.1 | 43.88
Neigh   | 0.98409    | 0.99025    | 0.99596    |   0.4 |  1.04
Comm    | 4.0554     | 4.902      | 5.5101     |  25.9 |  5.13
Output  | 0.024393   | 0.02477    | 0.025837   |   0.4 |  0.03
Modify  | 19.429     | 20.973     | 23.732     |  36.0 | 21.95
Other   |            | 3.015      |            |       |  3.16

Nlocal:        122.500 ave         173 max         100 min
Histogram: 2 0 1 0 0 0 0 0 0 1
Nghost:        1031.50 ave        1094 max         941 min
Histogram: 1 0 0 0 1 0 0 0 1 1
Neighs:        13742.5 ave       16489 max        9766 min
Histogram: 1 0 0 0 0 1 0 0 1 1

Total # of neighbors = 54970
Ave neighs/atom = 112.18367
Ave special neighs/atom = 1.3469388
Neighbor list builds = 2539
Dangerous builds = 0
write_data eq.data
System init for write_data ...
PPPM initialization ...
  using 12-bit tables for long-range coulomb (src/kspace.cpp:340)
  G vector (1/distance) = 0.263794
  grid = 15 15 24
  stencil order = 5
  estimated absolute RMS force accuracy = 0.026421525
  estimated relative force accuracy = 7.9567637e-05
  using double precision FFTW3
  3d grid and FFT values/proc = 5236 1440
Total wall time: 0:01:35
